opti prop conp
title
temp
end
vectors
4.21 0.00 0.00
0.00 4.21 0.00
0.00 0.00 4.21
frac 
Mg core 0.00 0.00 0.00 
Mg core 0.50 0.50 0.00 
Mg core 0.50 0.00 0.50
Mg core 0.00 0.50 0.50
O  core 0.50 0.00 0.00
O  core 0.00 0.50 0.00
O  core 0.00 0.00 0.50
O  core 0.50 0.50 0.50
space
1
species
Mg  2.0
O  -2.0
buck
Mg core O core  821.6 0.3242  0.0  10.0
buck
O core O core   22764.0 0.1490 27.88   10.0
output xtl MgO-LC_nosym_gulp
output xyz MgO-LC_nosym_gulp
output arc MgO-LC_nosym_gulp
