opti prop conp
title
temp
end
cell
6.63 6.63 6.63 90.0 90.0 90.0
frac 
U  core 0.00 0.00 0.00 
U  core 0.25 0.50 0.00
H  core 0.00 0.156 0.313
space
223

output xtl UH3
output xyz UH3
output arc UH3
